N = 5;
M = 4;
Edge_Start = [1, 2, 3, 3];
Edge_End = [3, 3, 4, 5];
L = [10, 5, 3, 2];
T = [15, 10, 5, 2];
Lower_Bound = [0, 0, 0, 0, 0];
Upper_Bound = [20, 20, 20, 20, 20];
Start = 1;
End = 5;
Time = 32;
